c User generated cnf file
p cnf 15 18
4 9 -13 0 
10 -4 15 0 
10 -2 12 0 
1 4 -7 0 
4 -15 8 0 
-11 8 12 0 
4 7 -13 0 
12 -5 3 0 
3 7 -6 0 
11 13 -11 0 
13 11 -13 0 
8 3 -8 0 
9 -8 11 0 
-15 13 1 0 
12 7 -1 0 
8 13 -5 0 
2 1 -12 0 
-8 13 1 0 
